\* octm *\
Maximize
OBJ: 0.0024635209702 deltas_x0 + 0.00825685635209 deltas_x1
 + 0.0373047441244 deltas_x10 + 5.41433182661e-05 deltas_x100
 + 8.12149737612e-05 deltas_x101 + 5.41433182661e-05 deltas_x102
 + 0.000108286636532 deltas_x103 + 2.70716591331e-05 deltas_x105
 + 2.70716591331e-05 deltas_x106 + 2.70716591331e-05 deltas_x107
 + 2.70716591331e-05 deltas_x108 + 8.12149737612e-05 deltas_x109
 + 0.0391185469925 deltas_x11 + 2.70716591331e-05 deltas_x110
 + 5.41433182661e-05 deltas_x111 + 8.12149737612e-05 deltas_x113
 + 2.70716591331e-05 deltas_x114 + 2.70716591331e-05 deltas_x115
 + 2.70716591331e-05 deltas_x119 + 0.0364384539425 deltas_x12
 + 2.70716591331e-05 deltas_x123 + 2.70716591331e-05 deltas_x124
 + 0.0336229987442 deltas_x13 + 2.70716591331e-05 deltas_x131
 + 5.41433182661e-05 deltas_x132 + 2.70716591331e-05 deltas_x136
 + 0.0299683269113 deltas_x14 + 5.41433182661e-05 deltas_x141
 + 2.70716591331e-05 deltas_x145 + 2.70716591331e-05 deltas_x146
 + 5.41433182661e-05 deltas_x149 + 0.0289396028966 deltas_x15
 + 2.70716591331e-05 deltas_x155 + 0.024878853932 deltas_x16
 + 2.70716591331e-05 deltas_x162 + 2.70716591331e-05 deltas_x165
 + 0.0256097894162 deltas_x17 + 0.0246893521398 deltas_x18
 + 0.0225236192346 deltas_x19 + 2.70716591331e-05 deltas_x197
 + 0.0296976100653 deltas_x2 + 0.0207368899137 deltas_x20
 + 2.70716591331e-05 deltas_x201 + 0.0190855190158 deltas_x21
 + 0.0185170136392 deltas_x22 + 0.0172987896949 deltas_x23
 + 2.70716591331e-05 deltas_x232 + 0.0146999107674 deltas_x24
 + 0.0138065461069 deltas_x25 + 0.014320907183 deltas_x26
 + 0.0125341778621 deltas_x27 + 0.0121281035244 deltas_x28
 + 0.0113430246711 deltas_x29 + 0.0539538152516 deltas_x3
 + 0.0122363893315 deltas_x30 + 0.0120198167861 deltas_x31
 + 0.0112618096173 deltas_x32 + 0.0109910937026 deltas_x33
 + 0.0120468884706 deltas_x34 + 0.0105308750644 deltas_x35
 + 0.00993529893458 deltas_x36 + 0.00985408388078 deltas_x37
 + 0.0094480086118 deltas_x38 + 0.00828392710537 deltas_x39
 + 0.0501908548176 deltas_x4 + 0.0080402828753 deltas_x40
 + 0.00695741642267 deltas_x41 + 0.00617233803496 deltas_x42
 + 0.00703863147646 deltas_x43 + 0.00625355308875 deltas_x44
 + 0.00454803882167 deltas_x45 + 0.0047375401482 deltas_x46
 + 0.00435853702947 deltas_x47 + 0.00284252408892 deltas_x48
 + 0.00300495419651 deltas_x49 + 0.0398765541613 deltas_x5
 + 0.00300495419651 deltas_x50 + 0.00208451761864 deltas_x51
 + 0.00167844281532 deltas_x52 + 0.00208451761864 deltas_x53
 + 0.00146186957136 deltas_x54 + 0.00154308450874 deltas_x55
 + 0.000839221407659 deltas_x56 + 0.000730934785679 deltas_x57
 + 0.000920436403248 deltas_x58 + 0.000785078096669 deltas_x59
 + 0.0409052744508 deltas_x6 + 0.000839221407659 deltas_x60
 + 0.000676791474689 deltas_x61 + 0.000460218201624 deltas_x62
 + 0.000730934785679 deltas_x63 + 0.000514361541718 deltas_x64
 + 0.000568504852708 deltas_x65 + 0.000568504852708 deltas_x66
 + 0.000487289857119 deltas_x67 + 0.000406074890634 deltas_x68
 + 0.000406074890634 deltas_x69 + 0.0459135323763 deltas_x7
 + 0.00035193155054 deltas_x70 + 0.00024364492856 deltas_x71
 + 0.00035193155054 deltas_x72 + 0.000433146546129 deltas_x73
 + 0.000108286636532 deltas_x74 + 0.00024364492856 deltas_x75
 + 0.00029778823955 deltas_x76 + 0.000270716584055 deltas_x77
 + 0.000216573273065 deltas_x78 + 0.000189501617569 deltas_x79
 + 0.0465091094375 deltas_x8 + 0.000135358292027 deltas_x80
 + 2.70716591331e-05 deltas_x81 + 0.000135358292027 deltas_x82
 + 0.000216573273065 deltas_x83 + 0.000162429947522 deltas_x84
 + 0.000108286636532 deltas_x85 + 0.000108286636532 deltas_x86
 + 0.000135358292027 deltas_x87 + 0.000162429947522 deltas_x88
 + 0.000189501617569 deltas_x89 + 0.0368986725807 deltas_x9
 + 0.000162429947522 deltas_x90 + 8.12149737612e-05 deltas_x91
 + 0.000108286636532 deltas_x92 + 0.000108286636532 deltas_x93
 + 0.000108286636532 deltas_x94 + 8.12149737612e-05 deltas_x95
 + 0.000108286636532 deltas_x96 + 0.000135358292027 deltas_x97
 + 5.41433182661e-05 deltas_x98 + 0.000162429947522 deltas_x99
Subject To
_C1: deltas_x0 + deltas_x1 + deltas_x10 + deltas_x100 + deltas_x101
 + deltas_x102 + deltas_x103 + deltas_x104 + deltas_x105 + deltas_x106
 + deltas_x107 + deltas_x108 + deltas_x109 + deltas_x11 + deltas_x110
 + deltas_x111 + deltas_x112 + deltas_x113 + deltas_x114 + deltas_x115
 + deltas_x116 + deltas_x117 + deltas_x118 + deltas_x119 + deltas_x12
 + deltas_x120 + deltas_x121 + deltas_x122 + deltas_x123 + deltas_x124
 + deltas_x125 + deltas_x126 + deltas_x127 + deltas_x128 + deltas_x129
 + deltas_x13 + deltas_x130 + deltas_x131 + deltas_x132 + deltas_x133
 + deltas_x134 + deltas_x135 + deltas_x136 + deltas_x137 + deltas_x138
 + deltas_x139 + deltas_x14 + deltas_x140 + deltas_x141 + deltas_x142
 + deltas_x143 + deltas_x144 + deltas_x145 + deltas_x146 + deltas_x147
 + deltas_x148 + deltas_x149 + deltas_x15 + deltas_x150 + deltas_x151
 + deltas_x152 + deltas_x153 + deltas_x154 + deltas_x155 + deltas_x156
 + deltas_x157 + deltas_x158 + deltas_x159 + deltas_x16 + deltas_x160
 + deltas_x161 + deltas_x162 + deltas_x163 + deltas_x164 + deltas_x165
 + deltas_x166 + deltas_x167 + deltas_x168 + deltas_x169 + deltas_x17
 + deltas_x170 + deltas_x171 + deltas_x172 + deltas_x173 + deltas_x174
 + deltas_x175 + deltas_x176 + deltas_x177 + deltas_x178 + deltas_x179
 + deltas_x18 + deltas_x180 + deltas_x181 + deltas_x182 + deltas_x183
 + deltas_x184 + deltas_x185 + deltas_x186 + deltas_x187 + deltas_x188
 + deltas_x189 + deltas_x19 + deltas_x190 + deltas_x191 + deltas_x192
 + deltas_x193 + deltas_x194 + deltas_x195 + deltas_x196 + deltas_x197
 + deltas_x198 + deltas_x199 + deltas_x2 + deltas_x20 + deltas_x200
 + deltas_x201 + deltas_x202 + deltas_x203 + deltas_x204 + deltas_x205
 + deltas_x206 + deltas_x207 + deltas_x208 + deltas_x209 + deltas_x21
 + deltas_x210 + deltas_x211 + deltas_x212 + deltas_x213 + deltas_x214
 + deltas_x215 + deltas_x216 + deltas_x217 + deltas_x218 + deltas_x219
 + deltas_x22 + deltas_x220 + deltas_x221 + deltas_x222 + deltas_x223
 + deltas_x224 + deltas_x225 + deltas_x226 + deltas_x227 + deltas_x228
 + deltas_x229 + deltas_x23 + deltas_x230 + deltas_x231 + deltas_x232
 + deltas_x233 + deltas_x234 + deltas_x235 + deltas_x236 + deltas_x237
 + deltas_x238 + deltas_x239 + deltas_x24 + deltas_x240 + deltas_x241
 + deltas_x242 + deltas_x243 + deltas_x244 + deltas_x245 + deltas_x246
 + deltas_x247 + deltas_x248 + deltas_x249 + deltas_x25 + deltas_x250
 + deltas_x251 + deltas_x252 + deltas_x253 + deltas_x254 + deltas_x255
 + deltas_x26 + deltas_x27 + deltas_x28 + deltas_x29 + deltas_x3 + deltas_x30
 + deltas_x31 + deltas_x32 + deltas_x33 + deltas_x34 + deltas_x35 + deltas_x36
 + deltas_x37 + deltas_x38 + deltas_x39 + deltas_x4 + deltas_x40 + deltas_x41
 + deltas_x42 + deltas_x43 + deltas_x44 + deltas_x45 + deltas_x46 + deltas_x47
 + deltas_x48 + deltas_x49 + deltas_x5 + deltas_x50 + deltas_x51 + deltas_x52
 + deltas_x53 + deltas_x54 + deltas_x55 + deltas_x56 + deltas_x57 + deltas_x58
 + deltas_x59 + deltas_x6 + deltas_x60 + deltas_x61 + deltas_x62 + deltas_x63
 + deltas_x64 + deltas_x65 + deltas_x66 + deltas_x67 + deltas_x68 + deltas_x69
 + deltas_x7 + deltas_x70 + deltas_x71 + deltas_x72 + deltas_x73 + deltas_x74
 + deltas_x75 + deltas_x76 + deltas_x77 + deltas_x78 + deltas_x79 + deltas_x8
 + deltas_x80 + deltas_x81 + deltas_x82 + deltas_x83 + deltas_x84 + deltas_x85
 + deltas_x86 + deltas_x87 + deltas_x88 + deltas_x89 + deltas_x9 + deltas_x90
 + deltas_x91 + deltas_x92 + deltas_x93 + deltas_x94 + deltas_x95 + deltas_x96
 + deltas_x97 + deltas_x98 + deltas_x99 <= 255
Bounds
0.5 <= deltas_x0 <= 255
0.5 <= deltas_x1 <= 255
0.5 <= deltas_x10 <= 255
0.5 <= deltas_x100 <= 255
0.5 <= deltas_x101 <= 255
0.5 <= deltas_x102 <= 255
0.5 <= deltas_x103 <= 255
0.5 <= deltas_x104 <= 255
0.5 <= deltas_x105 <= 255
0.5 <= deltas_x106 <= 255
0.5 <= deltas_x107 <= 255
0.5 <= deltas_x108 <= 255
0.5 <= deltas_x109 <= 255
0.5 <= deltas_x11 <= 255
0.5 <= deltas_x110 <= 255
0.5 <= deltas_x111 <= 255
0.5 <= deltas_x112 <= 255
0.5 <= deltas_x113 <= 255
0.5 <= deltas_x114 <= 255
0.5 <= deltas_x115 <= 255
0.5 <= deltas_x116 <= 255
0.5 <= deltas_x117 <= 255
0.5 <= deltas_x118 <= 255
0.5 <= deltas_x119 <= 255
0.5 <= deltas_x12 <= 255
0.5 <= deltas_x120 <= 255
0.5 <= deltas_x121 <= 255
0.5 <= deltas_x122 <= 255
0.5 <= deltas_x123 <= 255
0.5 <= deltas_x124 <= 255
0.5 <= deltas_x125 <= 255
0.5 <= deltas_x126 <= 255
0.5 <= deltas_x127 <= 255
0.5 <= deltas_x128 <= 255
0.5 <= deltas_x129 <= 255
0.5 <= deltas_x13 <= 255
0.5 <= deltas_x130 <= 255
0.5 <= deltas_x131 <= 255
0.5 <= deltas_x132 <= 255
0.5 <= deltas_x133 <= 255
0.5 <= deltas_x134 <= 255
0.5 <= deltas_x135 <= 255
0.5 <= deltas_x136 <= 255
0.5 <= deltas_x137 <= 255
0.5 <= deltas_x138 <= 255
0.5 <= deltas_x139 <= 255
0.5 <= deltas_x14 <= 255
0.5 <= deltas_x140 <= 255
0.5 <= deltas_x141 <= 255
0.5 <= deltas_x142 <= 255
0.5 <= deltas_x143 <= 255
0.5 <= deltas_x144 <= 255
0.5 <= deltas_x145 <= 255
0.5 <= deltas_x146 <= 255
0.5 <= deltas_x147 <= 255
0.5 <= deltas_x148 <= 255
0.5 <= deltas_x149 <= 255
0.5 <= deltas_x15 <= 255
0.5 <= deltas_x150 <= 255
0.5 <= deltas_x151 <= 255
0.5 <= deltas_x152 <= 255
0.5 <= deltas_x153 <= 255
0.5 <= deltas_x154 <= 255
0.5 <= deltas_x155 <= 255
0.5 <= deltas_x156 <= 255
0.5 <= deltas_x157 <= 255
0.5 <= deltas_x158 <= 255
0.5 <= deltas_x159 <= 255
0.5 <= deltas_x16 <= 255
0.5 <= deltas_x160 <= 255
0.5 <= deltas_x161 <= 255
0.5 <= deltas_x162 <= 255
0.5 <= deltas_x163 <= 255
0.5 <= deltas_x164 <= 255
0.5 <= deltas_x165 <= 255
0.5 <= deltas_x166 <= 255
0.5 <= deltas_x167 <= 255
0.5 <= deltas_x168 <= 255
0.5 <= deltas_x169 <= 255
0.5 <= deltas_x17 <= 255
0.5 <= deltas_x170 <= 255
0.5 <= deltas_x171 <= 255
0.5 <= deltas_x172 <= 255
0.5 <= deltas_x173 <= 255
0.5 <= deltas_x174 <= 255
0.5 <= deltas_x175 <= 255
0.5 <= deltas_x176 <= 255
0.5 <= deltas_x177 <= 255
0.5 <= deltas_x178 <= 255
0.5 <= deltas_x179 <= 255
0.5 <= deltas_x18 <= 255
0.5 <= deltas_x180 <= 255
0.5 <= deltas_x181 <= 255
0.5 <= deltas_x182 <= 255
0.5 <= deltas_x183 <= 255
0.5 <= deltas_x184 <= 255
0.5 <= deltas_x185 <= 255
0.5 <= deltas_x186 <= 255
0.5 <= deltas_x187 <= 255
0.5 <= deltas_x188 <= 255
0.5 <= deltas_x189 <= 255
0.5 <= deltas_x19 <= 255
0.5 <= deltas_x190 <= 255
0.5 <= deltas_x191 <= 255
0.5 <= deltas_x192 <= 255
0.5 <= deltas_x193 <= 255
0.5 <= deltas_x194 <= 255
0.5 <= deltas_x195 <= 255
0.5 <= deltas_x196 <= 255
0.5 <= deltas_x197 <= 255
0.5 <= deltas_x198 <= 255
0.5 <= deltas_x199 <= 255
0.5 <= deltas_x2 <= 255
0.5 <= deltas_x20 <= 255
0.5 <= deltas_x200 <= 255
0.5 <= deltas_x201 <= 255
0.5 <= deltas_x202 <= 255
0.5 <= deltas_x203 <= 255
0.5 <= deltas_x204 <= 255
0.5 <= deltas_x205 <= 255
0.5 <= deltas_x206 <= 255
0.5 <= deltas_x207 <= 255
0.5 <= deltas_x208 <= 255
0.5 <= deltas_x209 <= 255
0.5 <= deltas_x21 <= 255
0.5 <= deltas_x210 <= 255
0.5 <= deltas_x211 <= 255
0.5 <= deltas_x212 <= 255
0.5 <= deltas_x213 <= 255
0.5 <= deltas_x214 <= 255
0.5 <= deltas_x215 <= 255
0.5 <= deltas_x216 <= 255
0.5 <= deltas_x217 <= 255
0.5 <= deltas_x218 <= 255
0.5 <= deltas_x219 <= 255
0.5 <= deltas_x22 <= 255
0.5 <= deltas_x220 <= 255
0.5 <= deltas_x221 <= 255
0.5 <= deltas_x222 <= 255
0.5 <= deltas_x223 <= 255
0.5 <= deltas_x224 <= 255
0.5 <= deltas_x225 <= 255
0.5 <= deltas_x226 <= 255
0.5 <= deltas_x227 <= 255
0.5 <= deltas_x228 <= 255
0.5 <= deltas_x229 <= 255
0.5 <= deltas_x23 <= 255
0.5 <= deltas_x230 <= 255
0.5 <= deltas_x231 <= 255
0.5 <= deltas_x232 <= 255
0.5 <= deltas_x233 <= 255
0.5 <= deltas_x234 <= 255
0.5 <= deltas_x235 <= 255
0.5 <= deltas_x236 <= 255
0.5 <= deltas_x237 <= 255
0.5 <= deltas_x238 <= 255
0.5 <= deltas_x239 <= 255
0.5 <= deltas_x24 <= 255
0.5 <= deltas_x240 <= 255
0.5 <= deltas_x241 <= 255
0.5 <= deltas_x242 <= 255
0.5 <= deltas_x243 <= 255
0.5 <= deltas_x244 <= 255
0.5 <= deltas_x245 <= 255
0.5 <= deltas_x246 <= 255
0.5 <= deltas_x247 <= 255
0.5 <= deltas_x248 <= 255
0.5 <= deltas_x249 <= 255
0.5 <= deltas_x25 <= 255
0.5 <= deltas_x250 <= 255
0.5 <= deltas_x251 <= 255
0.5 <= deltas_x252 <= 255
0.5 <= deltas_x253 <= 255
0.5 <= deltas_x254 <= 255
0.5 <= deltas_x255 <= 255
0.5 <= deltas_x26 <= 255
0.5 <= deltas_x27 <= 255
0.5 <= deltas_x28 <= 255
0.5 <= deltas_x29 <= 255
0.5 <= deltas_x3 <= 255
0.5 <= deltas_x30 <= 255
0.5 <= deltas_x31 <= 255
0.5 <= deltas_x32 <= 255
0.5 <= deltas_x33 <= 255
0.5 <= deltas_x34 <= 255
0.5 <= deltas_x35 <= 255
0.5 <= deltas_x36 <= 255
0.5 <= deltas_x37 <= 255
0.5 <= deltas_x38 <= 255
0.5 <= deltas_x39 <= 255
0.5 <= deltas_x4 <= 255
0.5 <= deltas_x40 <= 255
0.5 <= deltas_x41 <= 255
0.5 <= deltas_x42 <= 255
0.5 <= deltas_x43 <= 255
0.5 <= deltas_x44 <= 255
0.5 <= deltas_x45 <= 255
0.5 <= deltas_x46 <= 255
0.5 <= deltas_x47 <= 255
0.5 <= deltas_x48 <= 255
0.5 <= deltas_x49 <= 255
0.5 <= deltas_x5 <= 255
0.5 <= deltas_x50 <= 255
0.5 <= deltas_x51 <= 255
0.5 <= deltas_x52 <= 255
0.5 <= deltas_x53 <= 255
0.5 <= deltas_x54 <= 255
0.5 <= deltas_x55 <= 255
0.5 <= deltas_x56 <= 255
0.5 <= deltas_x57 <= 255
0.5 <= deltas_x58 <= 255
0.5 <= deltas_x59 <= 255
0.5 <= deltas_x6 <= 255
0.5 <= deltas_x60 <= 255
0.5 <= deltas_x61 <= 255
0.5 <= deltas_x62 <= 255
0.5 <= deltas_x63 <= 255
0.5 <= deltas_x64 <= 255
0.5 <= deltas_x65 <= 255
0.5 <= deltas_x66 <= 255
0.5 <= deltas_x67 <= 255
0.5 <= deltas_x68 <= 255
0.5 <= deltas_x69 <= 255
0.5 <= deltas_x7 <= 255
0.5 <= deltas_x70 <= 255
0.5 <= deltas_x71 <= 255
0.5 <= deltas_x72 <= 255
0.5 <= deltas_x73 <= 255
0.5 <= deltas_x74 <= 255
0.5 <= deltas_x75 <= 255
0.5 <= deltas_x76 <= 255
0.5 <= deltas_x77 <= 255
0.5 <= deltas_x78 <= 255
0.5 <= deltas_x79 <= 255
0.5 <= deltas_x8 <= 255
0.5 <= deltas_x80 <= 255
0.5 <= deltas_x81 <= 255
0.5 <= deltas_x82 <= 255
0.5 <= deltas_x83 <= 255
0.5 <= deltas_x84 <= 255
0.5 <= deltas_x85 <= 255
0.5 <= deltas_x86 <= 255
0.5 <= deltas_x87 <= 255
0.5 <= deltas_x88 <= 255
0.5 <= deltas_x89 <= 255
0.5 <= deltas_x9 <= 255
0.5 <= deltas_x90 <= 255
0.5 <= deltas_x91 <= 255
0.5 <= deltas_x92 <= 255
0.5 <= deltas_x93 <= 255
0.5 <= deltas_x94 <= 255
0.5 <= deltas_x95 <= 255
0.5 <= deltas_x96 <= 255
0.5 <= deltas_x97 <= 255
0.5 <= deltas_x98 <= 255
0.5 <= deltas_x99 <= 255
End
